
Gurobi 6.5.1 (linux64) logging started Tue Aug  9 14:49:49 2016

Optimize a model with 624 rows, 640 columns and 2240 nonzeros
Coefficient statistics:
  Matrix range    [1e+00, 1e+00]
  Objective range [0e+00, 0e+00]
  Bounds range    [2e+01, 5e+01]
  RHS range       [1e+01, 5e+01]
Presolve removed 379 rows and 90 columns
Presolve time: 0.00s
Presolved: 245 rows, 550 columns, 1630 nonzeros

Iteration    Objective       Primal Inf.    Dual Inf.      Time
       0    1.0000000e+00   1.200000e+02   0.000000e+00      0s
      91    1.0000000e+00   0.000000e+00   0.000000e+00      0s

Solved in 91 iterations and 0.00 seconds
Optimal objective  1.000000000e+00
Optimize a model with 672 rows, 816 columns and 2480 nonzeros
Coefficient statistics:
  Matrix range    [1e+00, 1e+02]
  Objective range [1e+00, 1e+00]
  Bounds range    [1e+00, 5e+01]
  RHS range       [1e+01, 1e+01]
Presolve removed 419 rows and 253 columns
Presolve time: 0.00s
Presolved: 253 rows, 563 columns, 1669 nonzeros
Variable types: 550 continuous, 13 integer (13 binary)

Root relaxation: objective 2.600000e+00, 136 iterations, 0.00 seconds

    Nodes    |    Current Node    |     Objective Bounds      |     Work
 Expl Unexpl |  Obj  Depth IntInf | Incumbent    BestBd   Gap | It/Node Time

     0     0    2.60000    0    1          -    2.60000      -     -    0s
H    0     0                       3.0000000    2.60000  13.3%     -    0s

Explored 0 nodes (136 simplex iterations) in 0.02 seconds
Thread count was 32 (of 120 available processors)

Optimal solution found (tolerance 1.00e-04)
Best objective 3.000000000000e+00, best bound 3.000000000000e+00, gap 0.0%
Optimize a model with 672 rows, 816 columns and 2480 nonzeros
Coefficient statistics:
  Matrix range    [1e+00, 1e+02]
  Objective range [1e+00, 1e+00]
  Bounds range    [1e+00, 5e+01]
  RHS range       [1e+01, 1e+01]
Presolve removed 392 rows and 181 columns
Presolve time: 0.01s
Presolved: 280 rows, 635 columns, 1819 nonzeros
Variable types: 550 continuous, 85 integer (85 binary)

Root relaxation: objective 2.616111e+01, 342 iterations, 0.01 seconds

    Nodes    |    Current Node    |     Objective Bounds      |     Work
 Expl Unexpl |  Obj  Depth IntInf | Incumbent    BestBd   Gap | It/Node Time

     0     0   26.16111    0   30          -   26.16111      -     -    0s
H    0     0                      42.0000000   26.16111  37.7%     -    0s
     0     0   32.13778    0   43   42.00000   32.13778  23.5%     -    0s
     0     0   32.72308    0   49   42.00000   32.72308  22.1%     -    0s
H    0     0                      41.0000000   32.72308  20.2%     -    0s
     0     0   34.85231    0   45   41.00000   34.85231  15.0%     -    0s
     0     0   35.35061    0   51   41.00000   35.35061  13.8%     -    0s
     0     0   35.77085    0   41   41.00000   35.77085  12.8%     -    0s
     0     0   35.85858    0   48   41.00000   35.85858  12.5%     -    0s
     0     0   35.95388    0   51   41.00000   35.95388  12.3%     -    0s
     0     0   36.18446    0   55   41.00000   36.18446  11.7%     -    0s
     0     0   36.50191    0   48   41.00000   36.50191  11.0%     -    0s
     0     0   36.50501    0   47   41.00000   36.50501  11.0%     -    0s
     0     0   36.56185    0   45   41.00000   36.56185  10.8%     -    0s
     0     0   36.57333    0   48   41.00000   36.57333  10.8%     -    0s
     0     0   36.57357    0   48   41.00000   36.57357  10.8%     -    0s
     0     0   37.08333    0   25   41.00000   37.08333  9.55%     -    0s
     0     0   37.08333    0   25   41.00000   37.08333  9.55%     -    0s
     0     2   37.08333    0   25   41.00000   37.08333  9.55%     -    0s
H    9     7                      39.0000000   37.55556  3.70%  24.4    0s

Cutting planes:
  Gomory: 4
  Cover: 13
  Implied bound: 2
  Clique: 3
  MIR: 13
  Flow cover: 28
  Flow path: 2
  Network: 13

Explored 17 nodes (1249 simplex iterations) in 0.28 seconds
Thread count was 32 (of 120 available processors)

Optimal solution found (tolerance 1.00e-04)
Best objective 3.900000000000e+01, best bound 3.900000000000e+01, gap 0.0%

Gurobi 6.5.1 (linux64) logging started Tue Aug  9 14:52:21 2016

Optimize a model with 624 rows, 640 columns and 2240 nonzeros
Coefficient statistics:
  Matrix range    [1e+00, 1e+00]
  Objective range [0e+00, 0e+00]
  Bounds range    [2e+01, 5e+01]
  RHS range       [1e+01, 5e+01]
Presolve removed 379 rows and 90 columns
Presolve time: 0.00s
Presolved: 245 rows, 550 columns, 1630 nonzeros

Iteration    Objective       Primal Inf.    Dual Inf.      Time
       0    1.0000000e+00   1.200000e+02   0.000000e+00      0s
      91    1.0000000e+00   0.000000e+00   0.000000e+00      0s

Solved in 91 iterations and 0.00 seconds
Optimal objective  1.000000000e+00
Optimize a model with 672 rows, 816 columns and 2480 nonzeros
Coefficient statistics:
  Matrix range    [1e+00, 1e+02]
  Objective range [1e+00, 1e+00]
  Bounds range    [1e+00, 5e+01]
  RHS range       [1e+01, 1e+01]
Presolve removed 409 rows and 226 columns
Presolve time: 0.01s
Presolved: 263 rows, 590 columns, 1726 nonzeros
Variable types: 550 continuous, 40 integer (40 binary)

Root relaxation: objective 9.766667e+00, 191 iterations, 0.00 seconds

    Nodes    |    Current Node    |     Objective Bounds      |     Work
 Expl Unexpl |  Obj  Depth IntInf | Incumbent    BestBd   Gap | It/Node Time

     0     0    9.76667    0   16          -    9.76667      -     -    0s
H    0     0                      17.0000000    9.76667  42.5%     -    0s
     0     0   11.89770    0   18   17.00000   11.89770  30.0%     -    0s
     0     0   11.89918    0   18   17.00000   11.89918  30.0%     -    0s
H    0     0                      14.0000000   11.89918  15.0%     -    0s
     0     0   12.08367    0   25   14.00000   12.08367  13.7%     -    0s
     0     0   12.08423    0   26   14.00000   12.08423  13.7%     -    0s
     0     0   12.26246    0   16   14.00000   12.26246  12.4%     -    0s
     0     0   12.27086    0   16   14.00000   12.27086  12.4%     -    0s
     0     0   12.35835    0   14   14.00000   12.35835  11.7%     -    0s
     0     0   12.35835    0   14   14.00000   12.35835  11.7%     -    0s
     0     0   12.42381    0   19   14.00000   12.42381  11.3%     -    0s
     0     0   12.42381    0   19   14.00000   12.42381  11.3%     -    0s
     0     0   12.42381    0   15   14.00000   12.42381  11.3%     -    0s
     0     0   12.42381    0   23   14.00000   12.42381  11.3%     -    0s
     0     0   12.42381    0   24   14.00000   12.42381  11.3%     -    0s
     0     0   12.43576    0   21   14.00000   12.43576  11.2%     -    0s
     0     0   12.44965    0   21   14.00000   12.44965  11.1%     -    0s
     0     0   12.45045    0   23   14.00000   12.45045  11.1%     -    0s
     0     0   12.73048    0   11   14.00000   12.73048  9.07%     -    0s
     0     0   12.73048    0    6   14.00000   12.73048  9.07%     -    0s
     0     0   12.80000    0    4   14.00000   12.80000  8.57%     -    0s
     0     0   12.92477    0    6   14.00000   12.92477  7.68%     -    0s

Cutting planes:
  Gomory: 2
  MIR: 4
  Flow cover: 11

Explored 0 nodes (842 simplex iterations) in 0.24 seconds
Thread count was 32 (of 120 available processors)

Optimal solution found (tolerance 1.00e-04)
Best objective 1.400000000000e+01, best bound 1.400000000000e+01, gap 0.0%
Optimize a model with 672 rows, 816 columns and 2480 nonzeros
Coefficient statistics:
  Matrix range    [1e+00, 1e+02]
  Objective range [1e+00, 1e+00]
  Bounds range    [1e+00, 5e+01]
  RHS range       [1e+01, 1e+01]
Presolve removed 392 rows and 181 columns
Presolve time: 0.01s
Presolved: 280 rows, 635 columns, 1819 nonzeros
Variable types: 550 continuous, 85 integer (85 binary)

Root relaxation: objective 2.616111e+01, 342 iterations, 0.01 seconds

    Nodes    |    Current Node    |     Objective Bounds      |     Work
 Expl Unexpl |  Obj  Depth IntInf | Incumbent    BestBd   Gap | It/Node Time

     0     0   26.16111    0   30          -   26.16111      -     -    0s
H    0     0                      42.0000000   26.16111  37.7%     -    0s
     0     0   32.13778    0   43   42.00000   32.13778  23.5%     -    0s
     0     0   32.72308    0   49   42.00000   32.72308  22.1%     -    0s
H    0     0                      41.0000000   32.72308  20.2%     -    0s
     0     0   34.85231    0   45   41.00000   34.85231  15.0%     -    0s
     0     0   35.35061    0   51   41.00000   35.35061  13.8%     -    0s
     0     0   35.77085    0   41   41.00000   35.77085  12.8%     -    0s
     0     0   35.85858    0   48   41.00000   35.85858  12.5%     -    0s
     0     0   35.95388    0   51   41.00000   35.95388  12.3%     -    0s
     0     0   36.18446    0   55   41.00000   36.18446  11.7%     -    0s
     0     0   36.50191    0   48   41.00000   36.50191  11.0%     -    0s
     0     0   36.50501    0   47   41.00000   36.50501  11.0%     -    0s
     0     0   36.56185    0   45   41.00000   36.56185  10.8%     -    0s
     0     0   36.57333    0   48   41.00000   36.57333  10.8%     -    0s
     0     0   36.57357    0   48   41.00000   36.57357  10.8%     -    0s
     0     0   37.08333    0   25   41.00000   37.08333  9.55%     -    0s
     0     0   37.08333    0   25   41.00000   37.08333  9.55%     -    0s
     0     2   37.08333    0   25   41.00000   37.08333  9.55%     -    0s
H    9     7                      39.0000000   37.55556  3.70%  24.4    0s

Cutting planes:
  Gomory: 4
  Cover: 13
  Implied bound: 2
  Clique: 3
  MIR: 13
  Flow cover: 28
  Flow path: 2
  Network: 13

Explored 17 nodes (1249 simplex iterations) in 0.27 seconds
Thread count was 32 (of 120 available processors)

Optimal solution found (tolerance 1.00e-04)
Best objective 3.900000000000e+01, best bound 3.900000000000e+01, gap 0.0%

Gurobi 6.5.1 (linux64) logging started Tue Aug  9 14:55:05 2016

Optimize a model with 624 rows, 640 columns and 2240 nonzeros
Coefficient statistics:
  Matrix range    [1e+00, 1e+00]
  Objective range [0e+00, 0e+00]
  Bounds range    [2e+01, 5e+01]
  RHS range       [1e+01, 5e+01]
Presolve removed 379 rows and 90 columns
Presolve time: 0.00s
Presolved: 245 rows, 550 columns, 1630 nonzeros

Iteration    Objective       Primal Inf.    Dual Inf.      Time
       0    1.0000000e+00   1.200000e+02   0.000000e+00      0s
      91    1.0000000e+00   0.000000e+00   0.000000e+00      0s

Solved in 91 iterations and 0.00 seconds
Optimal objective  1.000000000e+00
Optimize a model with 672 rows, 816 columns and 2480 nonzeros
Coefficient statistics:
  Matrix range    [1e+00, 1e+02]
  Objective range [1e+00, 1e+00]
  Bounds range    [1e+00, 5e+01]
  RHS range       [1e+01, 1e+01]
Presolve removed 409 rows and 226 columns
Presolve time: 0.01s
Presolved: 263 rows, 590 columns, 1726 nonzeros
Variable types: 550 continuous, 40 integer (40 binary)

Root relaxation: objective 9.766667e+00, 191 iterations, 0.00 seconds

    Nodes    |    Current Node    |     Objective Bounds      |     Work
 Expl Unexpl |  Obj  Depth IntInf | Incumbent    BestBd   Gap | It/Node Time

     0     0    9.76667    0   16          -    9.76667      -     -    0s
H    0     0                      17.0000000    9.76667  42.5%     -    0s
     0     0   11.89770    0   18   17.00000   11.89770  30.0%     -    0s
     0     0   11.89918    0   18   17.00000   11.89918  30.0%     -    0s
H    0     0                      14.0000000   11.89918  15.0%     -    0s
     0     0   12.08367    0   25   14.00000   12.08367  13.7%     -    0s
     0     0   12.08423    0   26   14.00000   12.08423  13.7%     -    0s
     0     0   12.26246    0   16   14.00000   12.26246  12.4%     -    0s
     0     0   12.27086    0   16   14.00000   12.27086  12.4%     -    0s
     0     0   12.35835    0   14   14.00000   12.35835  11.7%     -    0s
     0     0   12.35835    0   14   14.00000   12.35835  11.7%     -    0s
     0     0   12.42381    0   19   14.00000   12.42381  11.3%     -    0s
     0     0   12.42381    0   19   14.00000   12.42381  11.3%     -    0s
     0     0   12.42381    0   15   14.00000   12.42381  11.3%     -    0s
     0     0   12.42381    0   23   14.00000   12.42381  11.3%     -    0s
     0     0   12.42381    0   24   14.00000   12.42381  11.3%     -    0s
     0     0   12.43576    0   21   14.00000   12.43576  11.2%     -    0s
     0     0   12.44965    0   21   14.00000   12.44965  11.1%     -    0s
     0     0   12.45045    0   23   14.00000   12.45045  11.1%     -    0s
     0     0   12.73048    0   11   14.00000   12.73048  9.07%     -    0s
     0     0   12.73048    0    6   14.00000   12.73048  9.07%     -    0s
     0     0   12.80000    0    4   14.00000   12.80000  8.57%     -    0s
     0     0   12.92477    0    6   14.00000   12.92477  7.68%     -    0s

Cutting planes:
  Gomory: 2
  MIR: 4
  Flow cover: 11

Explored 0 nodes (842 simplex iterations) in 0.24 seconds
Thread count was 32 (of 120 available processors)

Optimal solution found (tolerance 1.00e-04)
Best objective 1.400000000000e+01, best bound 1.400000000000e+01, gap 0.0%
Optimize a model with 672 rows, 816 columns and 2480 nonzeros
Coefficient statistics:
  Matrix range    [1e+00, 1e+02]
  Objective range [1e+00, 1e+00]
  Bounds range    [1e+00, 5e+01]
  RHS range       [1e+01, 1e+01]
Presolve removed 392 rows and 181 columns
Presolve time: 0.01s
Presolved: 280 rows, 635 columns, 1819 nonzeros
Variable types: 550 continuous, 85 integer (85 binary)

Root relaxation: objective 2.616111e+01, 342 iterations, 0.01 seconds

    Nodes    |    Current Node    |     Objective Bounds      |     Work
 Expl Unexpl |  Obj  Depth IntInf | Incumbent    BestBd   Gap | It/Node Time

     0     0   26.16111    0   30          -   26.16111      -     -    0s
H    0     0                      42.0000000   26.16111  37.7%     -    0s
     0     0   32.13778    0   43   42.00000   32.13778  23.5%     -    0s
     0     0   32.72308    0   49   42.00000   32.72308  22.1%     -    0s
H    0     0                      41.0000000   32.72308  20.2%     -    0s
     0     0   34.85231    0   45   41.00000   34.85231  15.0%     -    0s
     0     0   35.35061    0   51   41.00000   35.35061  13.8%     -    0s
     0     0   35.77085    0   41   41.00000   35.77085  12.8%     -    0s
     0     0   35.85858    0   48   41.00000   35.85858  12.5%     -    0s
     0     0   35.95388    0   51   41.00000   35.95388  12.3%     -    0s
     0     0   36.18446    0   55   41.00000   36.18446  11.7%     -    0s
     0     0   36.50191    0   48   41.00000   36.50191  11.0%     -    0s
     0     0   36.50501    0   47   41.00000   36.50501  11.0%     -    0s
     0     0   36.56185    0   45   41.00000   36.56185  10.8%     -    0s
     0     0   36.57333    0   48   41.00000   36.57333  10.8%     -    0s
     0     0   36.57357    0   48   41.00000   36.57357  10.8%     -    0s
     0     0   37.08333    0   25   41.00000   37.08333  9.55%     -    0s
     0     0   37.08333    0   25   41.00000   37.08333  9.55%     -    0s
     0     2   37.08333    0   25   41.00000   37.08333  9.55%     -    0s
H    9     7                      39.0000000   37.55556  3.70%  24.4    0s

Cutting planes:
  Gomory: 4
  Cover: 13
  Implied bound: 2
  Clique: 3
  MIR: 13
  Flow cover: 28
  Flow path: 2
  Network: 13

Explored 17 nodes (1249 simplex iterations) in 0.26 seconds
Thread count was 32 (of 120 available processors)

Optimal solution found (tolerance 1.00e-04)
Best objective 3.900000000000e+01, best bound 3.900000000000e+01, gap 0.0%

Gurobi 6.5.1 (linux64) logging started Tue Aug  9 14:57:14 2016

Optimize a model with 624 rows, 640 columns and 2240 nonzeros
Coefficient statistics:
  Matrix range    [1e+00, 1e+00]
  Objective range [0e+00, 0e+00]
  Bounds range    [2e+01, 5e+01]
  RHS range       [1e+01, 5e+01]
Presolve removed 379 rows and 90 columns
Presolve time: 0.00s
Presolved: 245 rows, 550 columns, 1630 nonzeros

Iteration    Objective       Primal Inf.    Dual Inf.      Time
       0    1.0000000e+00   1.200000e+02   0.000000e+00      0s
      91    1.0000000e+00   0.000000e+00   0.000000e+00      0s

Solved in 91 iterations and 0.00 seconds
Optimal objective  1.000000000e+00
Optimize a model with 672 rows, 816 columns and 2480 nonzeros
Coefficient statistics:
  Matrix range    [1e+00, 1e+02]
  Objective range [1e+00, 1e+00]
  Bounds range    [1e+00, 5e+01]
  RHS range       [1e+01, 1e+01]
Presolve removed 409 rows and 226 columns
Presolve time: 0.01s
Presolved: 263 rows, 590 columns, 1726 nonzeros
Variable types: 550 continuous, 40 integer (40 binary)

Root relaxation: objective 9.766667e+00, 191 iterations, 0.00 seconds

    Nodes    |    Current Node    |     Objective Bounds      |     Work
 Expl Unexpl |  Obj  Depth IntInf | Incumbent    BestBd   Gap | It/Node Time

     0     0    9.76667    0   16          -    9.76667      -     -    0s
H    0     0                      17.0000000    9.76667  42.5%     -    0s
     0     0   11.89770    0   18   17.00000   11.89770  30.0%     -    0s
     0     0   11.89918    0   18   17.00000   11.89918  30.0%     -    0s
H    0     0                      14.0000000   11.89918  15.0%     -    0s
     0     0   12.08367    0   25   14.00000   12.08367  13.7%     -    0s
     0     0   12.08423    0   26   14.00000   12.08423  13.7%     -    0s
     0     0   12.26246    0   16   14.00000   12.26246  12.4%     -    0s
     0     0   12.27086    0   16   14.00000   12.27086  12.4%     -    0s
     0     0   12.35835    0   14   14.00000   12.35835  11.7%     -    0s
     0     0   12.35835    0   14   14.00000   12.35835  11.7%     -    0s
     0     0   12.42381    0   19   14.00000   12.42381  11.3%     -    0s
     0     0   12.42381    0   19   14.00000   12.42381  11.3%     -    0s
     0     0   12.42381    0   15   14.00000   12.42381  11.3%     -    0s
     0     0   12.42381    0   23   14.00000   12.42381  11.3%     -    0s
     0     0   12.42381    0   24   14.00000   12.42381  11.3%     -    0s
     0     0   12.43576    0   21   14.00000   12.43576  11.2%     -    0s
     0     0   12.44965    0   21   14.00000   12.44965  11.1%     -    0s
     0     0   12.45045    0   23   14.00000   12.45045  11.1%     -    0s
     0     0   12.73048    0   11   14.00000   12.73048  9.07%     -    0s
     0     0   12.73048    0    6   14.00000   12.73048  9.07%     -    0s
     0     0   12.80000    0    4   14.00000   12.80000  8.57%     -    0s
     0     0   12.92477    0    6   14.00000   12.92477  7.68%     -    0s

Cutting planes:
  Gomory: 2
  MIR: 4
  Flow cover: 11

Explored 0 nodes (842 simplex iterations) in 0.30 seconds
Thread count was 32 (of 120 available processors)

Optimal solution found (tolerance 1.00e-04)
Best objective 1.400000000000e+01, best bound 1.400000000000e+01, gap 0.0%
Optimize a model with 672 rows, 816 columns and 2480 nonzeros
Coefficient statistics:
  Matrix range    [1e+00, 1e+02]
  Objective range [1e+00, 1e+00]
  Bounds range    [1e+00, 5e+01]
  RHS range       [1e+01, 1e+01]
Presolve removed 392 rows and 181 columns
Presolve time: 0.01s
Presolved: 280 rows, 635 columns, 1819 nonzeros
Variable types: 550 continuous, 85 integer (85 binary)

Root relaxation: objective 2.616111e+01, 342 iterations, 0.01 seconds

    Nodes    |    Current Node    |     Objective Bounds      |     Work
 Expl Unexpl |  Obj  Depth IntInf | Incumbent    BestBd   Gap | It/Node Time

     0     0   26.16111    0   30          -   26.16111      -     -    0s
H    0     0                      42.0000000   26.16111  37.7%     -    0s
     0     0   32.13778    0   43   42.00000   32.13778  23.5%     -    0s
     0     0   32.72308    0   49   42.00000   32.72308  22.1%     -    0s
H    0     0                      41.0000000   32.72308  20.2%     -    0s
     0     0   34.85231    0   45   41.00000   34.85231  15.0%     -    0s
     0     0   35.35061    0   51   41.00000   35.35061  13.8%     -    0s
     0     0   35.77085    0   41   41.00000   35.77085  12.8%     -    0s
     0     0   35.85858    0   48   41.00000   35.85858  12.5%     -    0s
     0     0   35.95388    0   51   41.00000   35.95388  12.3%     -    0s
     0     0   36.18446    0   55   41.00000   36.18446  11.7%     -    0s
     0     0   36.50191    0   48   41.00000   36.50191  11.0%     -    0s
     0     0   36.50501    0   47   41.00000   36.50501  11.0%     -    0s
     0     0   36.56185    0   45   41.00000   36.56185  10.8%     -    0s
     0     0   36.57333    0   48   41.00000   36.57333  10.8%     -    0s
     0     0   36.57357    0   48   41.00000   36.57357  10.8%     -    0s
     0     0   37.08333    0   25   41.00000   37.08333  9.55%     -    0s
     0     0   37.08333    0   25   41.00000   37.08333  9.55%     -    0s
     0     2   37.08333    0   25   41.00000   37.08333  9.55%     -    0s
H    9     7                      39.0000000   37.55556  3.70%  24.4    0s

Cutting planes:
  Gomory: 4
  Cover: 13
  Implied bound: 2
  Clique: 3
  MIR: 13
  Flow cover: 28
  Flow path: 2
  Network: 13

Explored 17 nodes (1249 simplex iterations) in 0.26 seconds
Thread count was 32 (of 120 available processors)

Optimal solution found (tolerance 1.00e-04)
Best objective 3.900000000000e+01, best bound 3.900000000000e+01, gap 0.0%

Gurobi 6.5.1 (linux64) logging started Tue Aug  9 14:57:57 2016

Optimize a model with 624 rows, 640 columns and 2240 nonzeros
Coefficient statistics:
  Matrix range    [1e+00, 1e+00]
  Objective range [0e+00, 0e+00]
  Bounds range    [2e+01, 5e+01]
  RHS range       [1e+01, 5e+01]
Presolve removed 379 rows and 90 columns
Presolve time: 0.00s
Presolved: 245 rows, 550 columns, 1630 nonzeros

Iteration    Objective       Primal Inf.    Dual Inf.      Time
       0    1.0000000e+00   1.200000e+02   0.000000e+00      0s
      91    1.0000000e+00   0.000000e+00   0.000000e+00      0s

Solved in 91 iterations and 0.00 seconds
Optimal objective  1.000000000e+00
Optimize a model with 672 rows, 816 columns and 2480 nonzeros
Coefficient statistics:
  Matrix range    [1e+00, 1e+02]
  Objective range [1e+00, 1e+00]
  Bounds range    [1e+00, 5e+01]
  RHS range       [1e+01, 1e+01]
Presolve removed 409 rows and 226 columns
Presolve time: 0.01s
Presolved: 263 rows, 590 columns, 1726 nonzeros
Variable types: 550 continuous, 40 integer (40 binary)

Root relaxation: objective 9.766667e+00, 191 iterations, 0.00 seconds

    Nodes    |    Current Node    |     Objective Bounds      |     Work
 Expl Unexpl |  Obj  Depth IntInf | Incumbent    BestBd   Gap | It/Node Time

     0     0    9.76667    0   16          -    9.76667      -     -    0s
H    0     0                      17.0000000    9.76667  42.5%     -    0s
     0     0   11.89770    0   18   17.00000   11.89770  30.0%     -    0s
     0     0   11.89918    0   18   17.00000   11.89918  30.0%     -    0s
H    0     0                      14.0000000   11.89918  15.0%     -    0s
     0     0   12.08367    0   25   14.00000   12.08367  13.7%     -    0s
     0     0   12.08423    0   26   14.00000   12.08423  13.7%     -    0s
     0     0   12.26246    0   16   14.00000   12.26246  12.4%     -    0s
     0     0   12.27086    0   16   14.00000   12.27086  12.4%     -    0s
     0     0   12.35835    0   14   14.00000   12.35835  11.7%     -    0s
     0     0   12.35835    0   14   14.00000   12.35835  11.7%     -    0s
     0     0   12.42381    0   19   14.00000   12.42381  11.3%     -    0s
     0     0   12.42381    0   19   14.00000   12.42381  11.3%     -    0s
     0     0   12.42381    0   15   14.00000   12.42381  11.3%     -    0s
     0     0   12.42381    0   23   14.00000   12.42381  11.3%     -    0s
     0     0   12.42381    0   24   14.00000   12.42381  11.3%     -    0s
     0     0   12.43576    0   21   14.00000   12.43576  11.2%     -    0s
     0     0   12.44965    0   21   14.00000   12.44965  11.1%     -    0s
     0     0   12.45045    0   23   14.00000   12.45045  11.1%     -    0s
     0     0   12.73048    0   11   14.00000   12.73048  9.07%     -    0s
     0     0   12.73048    0    6   14.00000   12.73048  9.07%     -    0s
     0     0   12.80000    0    4   14.00000   12.80000  8.57%     -    0s
     0     0   12.92477    0    6   14.00000   12.92477  7.68%     -    0s

Cutting planes:
  Gomory: 2
  MIR: 4
  Flow cover: 11

Explored 0 nodes (842 simplex iterations) in 0.24 seconds
Thread count was 32 (of 120 available processors)

Optimal solution found (tolerance 1.00e-04)
Best objective 1.400000000000e+01, best bound 1.400000000000e+01, gap 0.0%
Optimize a model with 672 rows, 816 columns and 2480 nonzeros
Coefficient statistics:
  Matrix range    [1e+00, 1e+02]
  Objective range [1e+00, 1e+00]
  Bounds range    [1e+00, 5e+01]
  RHS range       [1e+01, 1e+01]
Presolve removed 392 rows and 181 columns
Presolve time: 0.01s
Presolved: 280 rows, 635 columns, 1819 nonzeros
Variable types: 550 continuous, 85 integer (85 binary)

Root relaxation: objective 2.616111e+01, 342 iterations, 0.01 seconds

    Nodes    |    Current Node    |     Objective Bounds      |     Work
 Expl Unexpl |  Obj  Depth IntInf | Incumbent    BestBd   Gap | It/Node Time

     0     0   26.16111    0   30          -   26.16111      -     -    0s
H    0     0                      42.0000000   26.16111  37.7%     -    0s
     0     0   32.13778    0   43   42.00000   32.13778  23.5%     -    0s
     0     0   32.72308    0   49   42.00000   32.72308  22.1%     -    0s
H    0     0                      41.0000000   32.72308  20.2%     -    0s
     0     0   34.85231    0   45   41.00000   34.85231  15.0%     -    0s
     0     0   35.35061    0   51   41.00000   35.35061  13.8%     -    0s
     0     0   35.77085    0   41   41.00000   35.77085  12.8%     -    0s
     0     0   35.85858    0   48   41.00000   35.85858  12.5%     -    0s
     0     0   35.95388    0   51   41.00000   35.95388  12.3%     -    0s
     0     0   36.18446    0   55   41.00000   36.18446  11.7%     -    0s
     0     0   36.50191    0   48   41.00000   36.50191  11.0%     -    0s
     0     0   36.50501    0   47   41.00000   36.50501  11.0%     -    0s
     0     0   36.56185    0   45   41.00000   36.56185  10.8%     -    0s
     0     0   36.57333    0   48   41.00000   36.57333  10.8%     -    0s
     0     0   36.57357    0   48   41.00000   36.57357  10.8%     -    0s
     0     0   37.08333    0   25   41.00000   37.08333  9.55%     -    0s
     0     0   37.08333    0   25   41.00000   37.08333  9.55%     -    0s
     0     2   37.08333    0   25   41.00000   37.08333  9.55%     -    0s
H    9     7                      39.0000000   37.55556  3.70%  24.4    0s

Cutting planes:
  Gomory: 4
  Cover: 13
  Implied bound: 2
  Clique: 3
  MIR: 13
  Flow cover: 28
  Flow path: 2
  Network: 13

Explored 17 nodes (1249 simplex iterations) in 0.25 seconds
Thread count was 32 (of 120 available processors)

Optimal solution found (tolerance 1.00e-04)
Best objective 3.900000000000e+01, best bound 3.900000000000e+01, gap 0.0%

Gurobi 6.5.1 (linux64) logging started Tue Aug  9 15:00:19 2016

Optimize a model with 624 rows, 640 columns and 2240 nonzeros
Coefficient statistics:
  Matrix range    [1e+00, 1e+00]
  Objective range [0e+00, 0e+00]
  Bounds range    [2e+01, 5e+01]
  RHS range       [1e+01, 5e+01]
Presolve removed 379 rows and 90 columns
Presolve time: 0.00s
Presolved: 245 rows, 550 columns, 1630 nonzeros

Iteration    Objective       Primal Inf.    Dual Inf.      Time
       0    1.0000000e+00   1.200000e+02   0.000000e+00      0s
      91    1.0000000e+00   0.000000e+00   0.000000e+00      0s

Solved in 91 iterations and 0.00 seconds
Optimal objective  1.000000000e+00
Optimize a model with 672 rows, 816 columns and 2480 nonzeros
Coefficient statistics:
  Matrix range    [1e+00, 1e+02]
  Objective range [1e+00, 1e+00]
  Bounds range    [1e+00, 5e+01]
  RHS range       [1e+01, 1e+01]
Presolve removed 409 rows and 226 columns
Presolve time: 0.01s
Presolved: 263 rows, 590 columns, 1726 nonzeros
Variable types: 550 continuous, 40 integer (40 binary)

Root relaxation: objective 9.766667e+00, 191 iterations, 0.00 seconds

    Nodes    |    Current Node    |     Objective Bounds      |     Work
 Expl Unexpl |  Obj  Depth IntInf | Incumbent    BestBd   Gap | It/Node Time

     0     0    9.76667    0   16          -    9.76667      -     -    0s
H    0     0                      17.0000000    9.76667  42.5%     -    0s
     0     0   11.89770    0   18   17.00000   11.89770  30.0%     -    0s
     0     0   11.89918    0   18   17.00000   11.89918  30.0%     -    0s
H    0     0                      14.0000000   11.89918  15.0%     -    0s
     0     0   12.08367    0   25   14.00000   12.08367  13.7%     -    0s
     0     0   12.08423    0   26   14.00000   12.08423  13.7%     -    0s
     0     0   12.26246    0   16   14.00000   12.26246  12.4%     -    0s
     0     0   12.27086    0   16   14.00000   12.27086  12.4%     -    0s
     0     0   12.35835    0   14   14.00000   12.35835  11.7%     -    0s
     0     0   12.35835    0   14   14.00000   12.35835  11.7%     -    0s
     0     0   12.42381    0   19   14.00000   12.42381  11.3%     -    0s
     0     0   12.42381    0   19   14.00000   12.42381  11.3%     -    0s
     0     0   12.42381    0   15   14.00000   12.42381  11.3%     -    0s
     0     0   12.42381    0   23   14.00000   12.42381  11.3%     -    0s
     0     0   12.42381    0   24   14.00000   12.42381  11.3%     -    0s
     0     0   12.43576    0   21   14.00000   12.43576  11.2%     -    0s
     0     0   12.44965    0   21   14.00000   12.44965  11.1%     -    0s
     0     0   12.45045    0   23   14.00000   12.45045  11.1%     -    0s
     0     0   12.73048    0   11   14.00000   12.73048  9.07%     -    0s
     0     0   12.73048    0    6   14.00000   12.73048  9.07%     -    0s
     0     0   12.80000    0    4   14.00000   12.80000  8.57%     -    0s
     0     0   12.92477    0    6   14.00000   12.92477  7.68%     -    0s

Cutting planes:
  Gomory: 2
  MIR: 4
  Flow cover: 11

Explored 0 nodes (842 simplex iterations) in 0.22 seconds
Thread count was 32 (of 120 available processors)

Optimal solution found (tolerance 1.00e-04)
Best objective 1.400000000000e+01, best bound 1.400000000000e+01, gap 0.0%
Optimize a model with 672 rows, 816 columns and 2480 nonzeros
Coefficient statistics:
  Matrix range    [1e+00, 1e+02]
  Objective range [1e+00, 1e+00]
  Bounds range    [1e+00, 5e+01]
  RHS range       [1e+01, 1e+01]
Presolve removed 392 rows and 181 columns
Presolve time: 0.01s
Presolved: 280 rows, 635 columns, 1819 nonzeros
Variable types: 550 continuous, 85 integer (85 binary)

Root relaxation: objective 2.616111e+01, 342 iterations, 0.01 seconds

    Nodes    |    Current Node    |     Objective Bounds      |     Work
 Expl Unexpl |  Obj  Depth IntInf | Incumbent    BestBd   Gap | It/Node Time

     0     0   26.16111    0   30          -   26.16111      -     -    0s
H    0     0                      42.0000000   26.16111  37.7%     -    0s
     0     0   32.13778    0   43   42.00000   32.13778  23.5%     -    0s
     0     0   32.72308    0   49   42.00000   32.72308  22.1%     -    0s
H    0     0                      41.0000000   32.72308  20.2%     -    0s
     0     0   34.85231    0   45   41.00000   34.85231  15.0%     -    0s
     0     0   35.35061    0   51   41.00000   35.35061  13.8%     -    0s
     0     0   35.77085    0   41   41.00000   35.77085  12.8%     -    0s
     0     0   35.85858    0   48   41.00000   35.85858  12.5%     -    0s
     0     0   35.95388    0   51   41.00000   35.95388  12.3%     -    0s
     0     0   36.18446    0   55   41.00000   36.18446  11.7%     -    0s
     0     0   36.50191    0   48   41.00000   36.50191  11.0%     -    0s
     0     0   36.50501    0   47   41.00000   36.50501  11.0%     -    0s
     0     0   36.56185    0   45   41.00000   36.56185  10.8%     -    0s
     0     0   36.57333    0   48   41.00000   36.57333  10.8%     -    0s
     0     0   36.57357    0   48   41.00000   36.57357  10.8%     -    0s
     0     0   37.08333    0   25   41.00000   37.08333  9.55%     -    0s
     0     0   37.08333    0   25   41.00000   37.08333  9.55%     -    0s
     0     2   37.08333    0   25   41.00000   37.08333  9.55%     -    0s
H    9     7                      39.0000000   37.55556  3.70%  24.4    0s

Cutting planes:
  Gomory: 4
  Cover: 13
  Implied bound: 2
  Clique: 3
  MIR: 13
  Flow cover: 28
  Flow path: 2
  Network: 13

Explored 17 nodes (1249 simplex iterations) in 0.26 seconds
Thread count was 32 (of 120 available processors)

Optimal solution found (tolerance 1.00e-04)
Best objective 3.900000000000e+01, best bound 3.900000000000e+01, gap 0.0%
